(set-logic QF_LIA)
(set-info :ran/ran2.smt2)
(set-info :smt-lib-version 2.0)
(declare-fun x1 () Int)
(declare-fun x2 () Int)
(declare-fun x3 () Int)
(declare-fun x4 () Int)
(declare-fun x5 () Int)
(declare-fun x6 () Int)
(declare-fun x7 () Int)
(assert (<= (+ (* 8 x1) (* (- 3) x2) (* 8 x3) (* (- 4) x4) (* 10 x5) (* 9 x6) (* 9 x7) ) 934))
(assert (<= (+ (* (- 7) x1) (* 1 x2) (* 4 x3) (* (- 7) x4) (* 10 x5) (* (- 9) x6) (* (- 1) x7) ) 1249))
(assert (<= (+ (* 7 x1) (* (- 9) x2) (* 5 x3) (* (- 5) x4) (* (- 7) x5) (* 4 x6) (* 8 x7) ) 211))
(assert (<= (+ (* 6 x1) (* (- 4) x2) (* (- 7) x3) (* 3 x4) (* 8 x5) (* 4 x6) (* 5 x7) ) (- 345)))
(assert (<= (+ (* 9 x1) (* 3 x2) (* 8 x3) (* 6 x4) (* (- 1) x5) (* 7 x6) (* 3 x7) ) 1237))
(assert (<= (+ (* (- 5) x1) (* (- 6) x2) (* 4 x3) (* (- 8) x4) (* (- 7) x5) (* (- 8) x6) (* 6 x7) ) 659))
(assert (<= (+ (* (- 8) x1) (* 0 x2) (* (- 7) x3) (* (- 7) x4) (* (- 8) x5) (* 9 x6) (* 6 x7) ) 316))
(assert (<= (+ (* (- 7) x1) (* 7 x2) (* (- 2) x3) (* (- 10) x4) (* 0 x5) (* (- 9) x6) (* 2 x7) ) 285))
(assert (<= (+ (* 2 x1) (* 0 x2) (* (- 8) x3) (* (- 10) x4) (* (- 6) x5) (* 5 x6) (* 1 x7) ) (- 871)))
(assert (<= (+ (* 7 x1) (* (- 6) x2) (* (- 1) x3) (* (- 10) x4) (* (- 6) x5) (* (- 8) x6) (* 8 x7) ) 462))
(assert (<= (+ (* 1 x1) (* (- 10) x2) (* (- 1) x3) (* 3 x4) (* 8 x5) (* (- 7) x6) (* (- 2) x7) ) (- 268)))
(assert (<= (+ (* 10 x1) (* 5 x2) (* 9 x3) (* (- 2) x4) (* 6 x5) (* 1 x6) (* 5 x7) ) (- 922)))
(assert (<= (+ (* 9 x1) (* 7 x2) (* (- 5) x3) (* (- 10) x4) (* 2 x5) (* 6 x6) (* (- 3) x7) ) (- 647)))
(assert (<= (+ (* 8 x1) (* 4 x2) (* (- 4) x3) (* (- 8) x4) (* 6 x5) (* (- 6) x6) (* (- 4) x7) ) 287))
(assert (<= (+ (* 1 x1) (* 0 x2) (* 0 x3) (* 0 x4) (* 0 x5) (* 0 x6) (* 0 x7) ) 1258))
(assert (<= (+ (* (- 1) x1) (* 0 x2) (* 0 x3) (* 0 x4) (* 0 x5) (* 0 x6) (* 0 x7) ) 1258))
(assert (<= (+ (* 0 x1) (* 1 x2) (* 0 x3) (* 0 x4) (* 0 x5) (* 0 x6) (* 0 x7) ) 1258))
(assert (<= (+ (* 0 x1) (* (- 1) x2) (* 0 x3) (* 0 x4) (* 0 x5) (* 0 x6) (* 0 x7) ) 1258))
(assert (<= (+ (* 0 x1) (* 0 x2) (* 1 x3) (* 0 x4) (* 0 x5) (* 0 x6) (* 0 x7) ) 1258))
(assert (<= (+ (* 0 x1) (* 0 x2) (* (- 1) x3) (* 0 x4) (* 0 x5) (* 0 x6) (* 0 x7) ) 1258))
(assert (<= (+ (* 0 x1) (* 0 x2) (* 0 x3) (* 1 x4) (* 0 x5) (* 0 x6) (* 0 x7) ) 1258))
(assert (<= (+ (* 0 x1) (* 0 x2) (* 0 x3) (* (- 1) x4) (* 0 x5) (* 0 x6) (* 0 x7) ) 1258))
(assert (<= (+ (* 0 x1) (* 0 x2) (* 0 x3) (* 0 x4) (* 1 x5) (* 0 x6) (* 0 x7) ) 1258))
(assert (<= (+ (* 0 x1) (* 0 x2) (* 0 x3) (* 0 x4) (* (- 1) x5) (* 0 x6) (* 0 x7) ) 1258))
(assert (<= (+ (* 0 x1) (* 0 x2) (* 0 x3) (* 0 x4) (* 0 x5) (* 1 x6) (* 0 x7) ) 1258))
(assert (<= (+ (* 0 x1) (* 0 x2) (* 0 x3) (* 0 x4) (* 0 x5) (* (- 1) x6) (* 0 x7) ) 1258))
(assert (<= (+ (* 0 x1) (* 0 x2) (* 0 x3) (* 0 x4) (* 0 x5) (* 0 x6) (* 1 x7) ) 1258))
(assert (<= (+ (* 0 x1) (* 0 x2) (* 0 x3) (* 0 x4) (* 0 x5) (* 0 x6) (* (- 1) x7) ) 1258))
